min: c;

c = 4.63947716926327 * u3_t10_h0 + 3.46522315873267 * u3_t10_h1 + 3.26897817248394 * u3_t4_h2 + 3.26897817248394 * u3_t10_h2 + 3.20507637992252 * u3_t4_h3 + 3.20507637992252 * u3_t10_h3 + 3.60235883246768 * u3_t4_h4 + 3.60235883246768 * u3_t10_h4 + 3.27766864644063 * u3_t4_h5 + 3.27766864644063 * u3_t10_h5 + 3.45853523993201 * u3_t4_h6 + 3.45853523993201 * u3_t10_h6 + 3.60424152515643 * u3_t4_h7 + 3.60424152515643 * u3_t9_h7 + 3.60424152515643 * u3_t10_h7 + 4.88717555368985 * u3_t4_h8 + 4.88717555368985 * u3_t9_h8 + 5.02990294765473 * u3_t4_h9 + 5.02990294765473 * u3_t9_h9 + 5.88009999402144 * u3_t4_h10 + 5.88009999402144 * u3_t6_h10 + 5.88009999402144 * u3_t9_h10 + 3.74246036431291 * u3_t3_h11 + 3.74246036431291 * u3_t4_h11 + 3.74246036431291 * u3_t6_h11 + 3.74246036431291 * u3_t9_h11 + 6.17543934674761 * u3_t3_h12 + 6.17543934674761 * u3_t4_h12 + 6.17543934674761 * u3_t6_h12 + 6.17543934674761 * u3_t9_h12 + 4.84001282734694 * u3_t3_h13 + 4.84001282734694 * u3_t4_h13 + 4.84001282734694 * u3_t5_h13 + 4.84001282734694 * u3_t6_h13 + 4.84001282734694 * u3_t9_h13 + 5.48966893798375 * u3_t3_h14 + 5.48966893798375 * u3_t4_h14 + 5.48966893798375 * u3_t5_h14 + 5.48966893798375 * u3_t6_h14 + 5.48966893798375 * u3_t9_h14 + 5.89805771643936 * u3_t2_h15 + 5.89805771643936 * u3_t3_h15 + 5.89805771643936 * u3_t4_h15 + 5.89805771643936 * u3_t5_h15 + 5.89805771643936 * u3_t6_h15 + 5.89805771643936 * u3_t9_h15 + 6.3748372064142 * u3_t2_h16 + 6.3748372064142 * u3_t4_h16 + 6.3748372064142 * u3_t5_h16 + 6.3748372064142 * u3_t6_h16 + 6.3748372064142 * u3_t9_h16 + 6.56311737815061 * u3_t2_h17 + 6.56311737815061 * u3_t4_h17 + 6.56311737815061 * u3_t6_h17 + 6.56311737815061 * u3_t9_h17 + 6.82191734940292 * u3_t2_h18 + 6.82191734940292 * u3_t6_h18 + 6.82191734940292 * u3_t9_h18 + 5.98934189677075 * u3_t2_h19 + 5.98934189677075 * u3_t9_h19 + 5.22845560362999 * u3_t1_h20 + 5.22845560362999 * u3_t2_h20 + 5.22845560362999 * u3_t8_h20 + 5.22845560362999 * u3_t9_h20 + 4.93321541538386 * u3_t1_h21 + 4.93321541538386 * u3_t2_h21 + 4.93321541538386 * u3_t7_h21 + 4.93321541538386 * u3_t8_h21 + 4.93321541538386 * u3_t9_h21 + 6.01538625271993 * u3_t1_h22 + 6.01538625271993 * u3_t7_h22 + 6.01538625271993 * u3_t8_h22 + 5.57847013273712 * u3_t1_h23 + 5.57847013273712 * u3_t7_h23 + 5.57847013273712 * u3_t8_h23;
0 <= u3_t1_h20 <= 1;
0 <= u3_t1_h21 <= 1;
0 <= u3_t1_h22 <= 1;
0 <= u3_t1_h23 <= 1;
u3_t1_h20 + u3_t1_h21 + u3_t1_h22 + u3_t1_h23 = 2;
0 <= u3_t2_h15 <= 1;
0 <= u3_t2_h16 <= 1;
0 <= u3_t2_h17 <= 1;
0 <= u3_t2_h18 <= 1;
0 <= u3_t2_h19 <= 1;
0 <= u3_t2_h20 <= 1;
0 <= u3_t2_h21 <= 1;
u3_t2_h15 + u3_t2_h16 + u3_t2_h17 + u3_t2_h18 + u3_t2_h19 + u3_t2_h20 + u3_t2_h21 = 3;
0 <= u3_t3_h11 <= 1;
0 <= u3_t3_h12 <= 1;
0 <= u3_t3_h13 <= 1;
0 <= u3_t3_h14 <= 1;
0 <= u3_t3_h15 <= 1;
u3_t3_h11 + u3_t3_h12 + u3_t3_h13 + u3_t3_h14 + u3_t3_h15 = 2;
0 <= u3_t4_h2 <= 1;
0 <= u3_t4_h3 <= 1;
0 <= u3_t4_h4 <= 1;
0 <= u3_t4_h5 <= 1;
0 <= u3_t4_h6 <= 1;
0 <= u3_t4_h7 <= 1;
0 <= u3_t4_h8 <= 1;
0 <= u3_t4_h9 <= 1;
0 <= u3_t4_h10 <= 1;
0 <= u3_t4_h11 <= 1;
0 <= u3_t4_h12 <= 1;
0 <= u3_t4_h13 <= 1;
0 <= u3_t4_h14 <= 1;
0 <= u3_t4_h15 <= 1;
0 <= u3_t4_h16 <= 1;
0 <= u3_t4_h17 <= 1;
u3_t4_h2 + u3_t4_h3 + u3_t4_h4 + u3_t4_h5 + u3_t4_h6 + u3_t4_h7 + u3_t4_h8 + u3_t4_h9 + u3_t4_h10 + u3_t4_h11 + u3_t4_h12 + u3_t4_h13 + u3_t4_h14 + u3_t4_h15 + u3_t4_h16 + u3_t4_h17 = 3;
0 <= u3_t5_h13 <= 1;
0 <= u3_t5_h14 <= 1;
0 <= u3_t5_h15 <= 1;
0 <= u3_t5_h16 <= 1;
u3_t5_h13 + u3_t5_h14 + u3_t5_h15 + u3_t5_h16 = 2;
0 <= u3_t6_h10 <= 1;
0 <= u3_t6_h11 <= 1;
0 <= u3_t6_h12 <= 1;
0 <= u3_t6_h13 <= 1;
0 <= u3_t6_h14 <= 1;
0 <= u3_t6_h15 <= 1;
0 <= u3_t6_h16 <= 1;
0 <= u3_t6_h17 <= 1;
0 <= u3_t6_h18 <= 1;
u3_t6_h10 + u3_t6_h11 + u3_t6_h12 + u3_t6_h13 + u3_t6_h14 + u3_t6_h15 + u3_t6_h16 + u3_t6_h17 + u3_t6_h18 = 2;
0 <= u3_t7_h21 <= 1;
0 <= u3_t7_h22 <= 1;
0 <= u3_t7_h23 <= 1;
u3_t7_h21 + u3_t7_h22 + u3_t7_h23 = 2;
0 <= u3_t8_h20 <= 1;
0 <= u3_t8_h21 <= 1;
0 <= u3_t8_h22 <= 1;
0 <= u3_t8_h23 <= 1;
u3_t8_h20 + u3_t8_h21 + u3_t8_h22 + u3_t8_h23 = 1;
0 <= u3_t9_h7 <= 1;
0 <= u3_t9_h8 <= 1;
0 <= u3_t9_h9 <= 1;
0 <= u3_t9_h10 <= 1;
0 <= u3_t9_h11 <= 1;
0 <= u3_t9_h12 <= 1;
0 <= u3_t9_h13 <= 1;
0 <= u3_t9_h14 <= 1;
0 <= u3_t9_h15 <= 1;
0 <= u3_t9_h16 <= 1;
0 <= u3_t9_h17 <= 1;
0 <= u3_t9_h18 <= 1;
0 <= u3_t9_h19 <= 1;
0 <= u3_t9_h20 <= 1;
0 <= u3_t9_h21 <= 1;
u3_t9_h7 + u3_t9_h8 + u3_t9_h9 + u3_t9_h10 + u3_t9_h11 + u3_t9_h12 + u3_t9_h13 + u3_t9_h14 + u3_t9_h15 + u3_t9_h16 + u3_t9_h17 + u3_t9_h18 + u3_t9_h19 + u3_t9_h20 + u3_t9_h21 = 2;
0 <= u3_t10_h0 <= 1;
0 <= u3_t10_h1 <= 1;
0 <= u3_t10_h2 <= 1;
0 <= u3_t10_h3 <= 1;
0 <= u3_t10_h4 <= 1;
0 <= u3_t10_h5 <= 1;
0 <= u3_t10_h6 <= 1;
0 <= u3_t10_h7 <= 1;
u3_t10_h0 + u3_t10_h1 + u3_t10_h2 + u3_t10_h3 + u3_t10_h4 + u3_t10_h5 + u3_t10_h6 + u3_t10_h7 = 3;
